Route #1: 26 72 39 9 25 55 18 50 32 44 3
Route #2: 12 40 17 51 16 49 24 56 23 63
Route #3: 33 73 1 43 41 42 64 22 62 2
Route #4: 30 74 28 61 69 36 71 60 70 20 37 45
Route #5: 27 13 54 57 15 5 47 21 48 29
Route #6: 75 6 68 4 52 46 34 67
Route #7: 58 10 31 38 65 66 11
Route #8: 7 35 53 14 59 19 8
Cost 774